p cnf 24 59
1 2 3 0
-1 -2 0
-1 -3 0
-2 -3 0
4 5 6 0
-4 -5 0
-4 -6 0
-5 -6 0
7 8 9 0
-7 -8 0
-7 -9 0
-8 -9 0
10 11 12 0
-10 -11 0
-10 -12 0
-11 -12 0
13 14 15 0
-13 -14 0
-13 -15 0
-14 -15 0
16 17 18 0
-16 -17 0
-16 -18 0
-17 -18 0
19 20 21 0
-19 -20 0
-19 -21 0
-20 -21 0
22 23 24 0
-22 -23 0
-22 -24 0
-23 -24 0
1 4 7 13 0
2 5 8 14 0
3 6 9 15 0
4 1 10 16 0
5 2 11 17 0
6 3 12 18 0
7 10 1 19 0
8 11 2 20 0
9 12 3 21 0
10 7 4 22 0
11 8 5 23 0
12 9 6 24 0
13 16 19 1 0
14 17 20 2 0
15 18 21 3 0
16 13 22 4 0
17 14 23 5 0
18 15 24 6 0
19 22 13 7 0
20 23 14 8 0
21 24 15 9 0
22 19 16 10 0
23 20 17 11 0
24 21 18 12 0
1 0
5 0
9 0